597,322
937,489
677,435
281,610
178,485
300,25
427,152
597,322
664,430
857,648
792,748
810,805
464,833
450,860
606,880
561,776
628,433
664,430
1023,517
1045,670
281,610
452,721
580,719
792,748
681,226
366,177
518,86
427,152
366,177
639,448
745,605
533,258
681,-134
